Problem:    
Rows:       248
Columns:    89 (72 integer, 72 binary)
Non-zeros:  820
Status:     INTEGER OPTIMAL
Objective:  value = 74.392 (MINimum)

   No.   Row name        Activity     Lower bound   Upper bound
------ ------------    ------------- ------------- -------------
     1 r.5                    74.392             0               
     2 r.6                  -1940.56      -1984.22               
     3 r.7                   2074.39             0               
     4 r.8                  -1987.02      -1988.24               
     5 r.9                   2074.39             0               
     6 r.10                 -1979.07      -1982.73               
     7 r.11                   74.392             0               
     8 r.12                 -8.01133      -1987.79               
     9 r.13                   74.392             0               
    10 r.14                 -1897.98      -1972.38               
    11 r.15                  2074.39             0               
    12 r.16                 -1947.97      -1981.26               
    13 r.17                   74.392             0               
    14 r.18                 -1910.58      -1984.97               
    15 r.19                  2074.39             0               
    16 r.20                 -1969.71      -1985.69               
    17 r.21                  2074.39             0               
    18 r.22                 -1962.34      -1986.27               
    19 r.23                   74.392             0               
    20 r.24                  1.21567      -1987.77               
    21 r.25                  2074.39             0               
    22 r.26                 -1925.61      -1966.27               
    23 r.27                   74.392             0               
    24 r.28                  -1906.3      -1980.69               
    25 r.29                   74.392             0               
    26 r.30                  40.6584      -1966.89               
    27 r.31                  2074.39             0               
    28 r.32                 -1925.61      -1980.64               
    29 r.33                  2074.39             0               
    30 r.34                 -1998.78      -1998.78               
    31 r.35                   74.392             0               
    32 r.36                 -1991.94      -1991.94               
    33 r.37                        1             1             = 
    34 r.38                        1             1             = 
    35 r.39                        1             1             = 
    36 r.40                        1             1             = 
    37 r.41                        1             1             = 
    38 r.42                        1             1             = 
    39 r.43                        1             1             = 
    40 r.44                        1             1             = 
    41 r.45                   1964.5       17.2708               
    42 r.46                  -1967.5      -1984.22               
    43 r.47                  1976.01       12.2143               
    44 r.48                 -1973.01      -1988.24               
    45 r.49                  45.5811        27.625               
    46 r.50                 -45.5811      -1984.22               
    47 r.51                  36.0551       18.7409               
    48 r.52                 -36.0551      -1988.24               
    49 r.53                  32.9836       15.0274               
    50 r.54                 -32.9836      -1984.22               
    51 r.55                  14.3142       14.3142               
    52 r.56                 -14.3142      -1988.24               
    53 r.57                  1981.22       13.7274               
    54 r.58                 -1981.22      -1984.22               
    55 r.59                  1985.24        12.227               
    56 r.60                 -1985.24      -1988.24               
    57 r.61                  17.9561      -1963.27               
    58 r.62                   37.264      -1977.69               
    59 r.63                 -1941.59      -1963.27               
    60 r.64                 -1922.28      -1977.69               
    61 r.65                  1984.22       33.1095               
    62 r.66                 -1984.22      -1984.22               
    63 r.67                  58.4124       19.3573               
    64 r.68                 -58.4124      -1988.24               
    65 r.69                 -1944.78      -1981.22               
    66 r.70                 -1985.24      -1985.24               
    67 r.71                  48.3719      -1981.22               
    68 r.72                  7.91561      -1985.24               
    69 r.73                  35.5048       15.7774               
    70 r.74                 -32.5048      -1982.73               
    71 r.75                  23.9909       11.7639               
    72 r.76                 -26.9909      -1987.79               
    73 r.77                  78.0859        27.625               
    74 r.78                 -78.0859      -1982.73               
    75 r.79                   63.046       18.7409               
    76 r.80                  -63.046      -1987.79               
    77 r.81                  65.4884       15.0274               
    78 r.82                 -65.4884      -1982.73               
    79 r.83                  41.3051       14.3142               
    80 r.84                 -41.3051      -1987.79               
    81 r.85                  13.7274       13.7274               
    82 r.86                 -13.7274      -1982.73               
    83 r.87                   12.227        12.227               
    84 r.88                  -12.227      -1987.79               
    85 r.89                   50.461       33.7336               
    86 r.90                  -50.461      -1982.73               
    87 r.91                  104.711       19.3079               
    88 r.92                 -104.711      -1987.79               
    89 r.93                  16.7274      -1963.89               
    90 r.94                 -1949.54      -1977.64               
    91 r.95                  51.6698      -1963.89               
    92 r.96                  -1914.6      -1977.64               
    93 r.97                 -1977.28      -1979.73               
    94 r.98                  -12.227      -1984.79               
    95 r.99                   15.867      -1979.73               
    96 r.100                 1980.92      -1984.79               
    97 r.101                 1957.42       15.7774               
    98 r.102                -1954.42      -1972.38               
    99 r.103                 1960.94       11.7639               
   100 r.104                -1963.94      -1981.26               
   101 r.105                 1918.91       17.2708               
   102 r.106                -1921.91      -1972.38               
   103 r.107                 1939.95       12.2143               
   104 r.108                -1936.95      -1981.26               
   105 r.109                 12.5975      -1969.38               
   106 r.110                -37.3847      -1978.26               
   107 r.111                -1928.28      -1969.38               
   108 r.112                -1978.26      -1978.26               
   109 r.113                 1935.64       13.7274               
   110 r.114                -1935.64      -1972.38               
   111 r.115                 1949.18        12.227               
   112 r.116                -1949.18      -1981.26               
   113 r.117                 1972.38       33.7336               
   114 r.118                -1972.38      -1972.38               
   115 r.119                 41.6652       19.3079               
   116 r.120                -41.6652      -1981.26               
   117 r.121                 1938.64      -1963.89               
   118 r.122                 -27.625      -1977.64               
   119 r.123                -11.3763      -1963.89               
   120 r.124                -1977.64      -1977.64               
   121 r.125                 -1899.2      -1969.38               
   122 r.126                -1949.18      -1978.26               
   123 r.127                  93.953      -1969.38               
   124 r.128                 43.9707      -1978.26               
   125 r.129                 1970.02       15.7774               
   126 r.130                -1967.02      -1984.97               
   127 r.131                 1982.69       11.7639               
   128 r.132                -1985.69      -1985.69               
   129 r.133                 1931.51       17.2708               
   130 r.134                -1934.51      -1984.97               
   131 r.135                 1961.69       12.2143               
   132 r.136                -1958.69      -1985.69               
   133 r.137                 12.5975      -1969.38               
   134 r.138                -37.3847      -1978.26               
   135 r.139                -1928.28      -1969.38               
   136 r.140                -1978.26      -1978.26               
   137 r.141                 1948.24       13.7274               
   138 r.142                -1948.24      -1984.97               
   139 r.143                 1970.92        12.227               
   140 r.144                -1970.92      -1985.69               
   141 r.145                 1984.97       33.7336               
   142 r.146                -1984.97      -1984.97               
   143 r.147                 63.4061       19.3079               
   144 r.148                -63.4061      -1985.69               
   145 r.149                 1951.24      -1963.89               
   146 r.150                -15.0274      -1977.64               
   147 r.151                 10.3646      -1963.89               
   148 r.152                 -1955.9      -1977.64               
   149 r.153                 -1911.8      -1978.97               
   150 r.154                -1970.92      -1979.69               
   151 r.155                 81.3554      -1978.97               
   152 r.156                 22.2298      -1979.69               
   153 r.157                 21.7774       15.7774               
   154 r.158                -18.7774      -1986.27               
   155 r.159                 11.7639       11.7639               
   156 r.160                -14.7639      -1987.77               
   157 r.161                 1983.27       17.2708               
   158 r.162                -1986.27      -1986.27               
   159 r.163                 1990.77       12.2143               
   160 r.164                -1987.77      -1987.77               
   161 r.165                 64.3586        27.625               
   162 r.166                -64.3586      -1986.27               
   163 r.167                  50.819       18.7409               
   164 r.168                 -50.819      -1987.77               
   165 r.169                  51.761       15.0274               
   166 r.170                 -51.761      -1986.27               
   167 r.171                 29.0781       14.3142               
   168 r.172                -29.0781      -1987.77               
   169 r.173                -1963.27      -1963.27               
   170 r.174                -1943.96      -1977.69               
   171 r.175                -1926.82      -1963.27               
   172 r.176                -1907.52      -1977.69               
   173 r.177                       3      -1963.89               
   174 r.178                -1963.27      -1977.64               
   175 r.179                 39.4428      -1963.89               
   176 r.180                -1926.82      -1977.64               
   177 r.181                -1963.56      -1980.27               
   178 r.182                       0      -1981.77               
   179 r.183                 29.5944      -1980.27               
   180 r.184                 1993.15      -1981.77               
   181 r.185                 17.9561      -1963.27               
   182 r.186                  37.264      -1977.69               
   183 r.187                -1941.59      -1963.27               
   184 r.188                -1922.28      -1977.69               
   185 r.189                 1946.54       17.2708               
   186 r.190                -1949.54      -1966.27               
   187 r.191                 1898.29       12.2143               
   188 r.192                -1895.29      -1980.69               
   189 r.193                  27.625        27.625               
   190 r.194                 -27.625      -1966.27               
   191 r.195                 1958.33       18.7409               
   192 r.196                -1958.33      -1980.69               
   193 r.197                 15.0274       15.0274               
   194 r.198                -15.0274      -1966.27               
   195 r.199                 1936.59       14.3142               
   196 r.200                -1936.59      -1980.69               
   197 r.201                -1963.27      -1963.27               
   198 r.202                -1943.96      -1977.69               
   199 r.203                -1926.82      -1963.27               
   200 r.204                -1907.52      -1977.69               
   201 r.205                 1966.27       33.1095               
   202 r.206                -1966.27      -1966.27               
   203 r.207                 1980.69       19.3573               
   204 r.208                -1980.69      -1980.69               
   205 r.209                 18.7774       15.7774               
   206 r.210                -15.7774      -1966.89               
   207 r.211                 1938.59       11.7639               
   208 r.212                -1941.59      -1980.64               
   209 r.213                 16.7274      -1963.89               
   210 r.214                -1949.54      -1977.64               
   211 r.215                 51.6698      -1963.89               
   212 r.216                 -1914.6      -1977.64               
   213 r.217                 1938.64      -1963.89               
   214 r.218                 -27.625      -1977.64               
   215 r.219                -11.3763      -1963.89               
   216 r.220                -1977.64      -1977.64               
   217 r.221                 1951.24      -1963.89               
   218 r.222                -15.0274      -1977.64               
   219 r.223                 10.3646      -1963.89               
   220 r.224                 -1955.9      -1977.64               
   221 r.225                       3      -1963.89               
   222 r.226                -1963.27      -1977.64               
   223 r.227                 39.4428      -1963.89               
   224 r.228                -1926.82      -1977.64               
   225 r.229                 33.7336       33.7336               
   226 r.230                -33.7336      -1966.89               
   227 r.231                 19.3079       19.3079               
   228 r.232                -19.3079      -1980.64               
   229 r.233                -1944.78      -1981.22               
   230 r.234                -1985.24      -1985.24               
   231 r.235                 48.3719      -1981.22               
   232 r.236                 7.91561      -1985.24               
   233 r.237                -1977.28      -1979.73               
   234 r.238                 -12.227      -1984.79               
   235 r.239                  15.867      -1979.73               
   236 r.240                 1980.92      -1984.79               
   237 r.241                 -1899.2      -1969.38               
   238 r.242                -1949.18      -1978.26               
   239 r.243                  93.953      -1969.38               
   240 r.244                 43.9707      -1978.26               
   241 r.245                 -1911.8      -1978.97               
   242 r.246                -1970.92      -1979.69               
   243 r.247                 81.3554      -1978.97               
   244 r.248                 22.2298      -1979.69               
   245 r.249                -1963.56      -1980.27               
   246 r.250                       0      -1981.77               
   247 r.251                 29.5944      -1980.27               
   248 r.252                 1993.15      -1981.77               

   No. Column name       Activity     Lower bound   Upper bound
------ ------------    ------------- ------------- -------------
     1 tt                     74.392             0               
     2 s_1_1        *              0             0             1 
     3 t_1_1                 2017.96             0               
     4 s_1_6        *              1             0             1 
     5 s_2_1        *              1             0             1 
     6 t_2_1                 58.4124             0               
     7 s_2_6        *              0             0             1 
     8 s_1_2        *              1             0             1 
     9 t_1_2                  50.461             0               
    10 s_1_7        *              0             0             1 
    11 s_2_2        *              0             0             1 
    12 t_2_2                 85.4033             0               
    13 s_2_7        *              1             0             1 
    14 s_1_3        *              0             0             1 
    15 t_1_3                 1972.38             0               
    16 s_2_3        *              1             0             1 
    17 t_2_3                 22.3573             0               
    18 s_1_4        *              0             0             1 
    19 t_1_4                 1984.97             0               
    20 s_2_4        *              1             0             1 
    21 t_2_4                 44.0982             0               
    22 s_1_5        *              1             0             1 
    23 t_1_5                 36.7336             0               
    24 s_2_5        *              0             0             1 
    25 t_2_5                 73.1763             0               
    26 t_1_6                       0             0               
    27 t_2_6                 1980.69             0               
    28 t_1_7                 33.7336             0               
    29 t_2_7                       0             0               
    30 s_1_8        *              1             0             1 
    31 t_1_8                 73.1763             0               
    32 s_2_8        *              0             0             1 
    33 t_2_8                 2066.33             0               
    34 u_1_1_2      *              0             0             1 
    35 u_2_1_2      *              1             0             1 
    36 u_1_1_3      *              0             0             1 
    37 u_2_1_3      *              0             0             1 
    38 u_1_1_4      *              0             0             1 
    39 u_2_1_4      *              0             0             1 
    40 u_1_1_5      *              0             0             1 
    41 u_2_1_5      *              1             0             1 
    42 u_1_1_7      *              0             0             1 
    43 u_2_1_7      *              0             0             1 
    44 u_1_2_1      *              1             0             1 
    45 u_2_2_1      *              0             0             1 
    46 u_1_2_3      *              1             0             1 
    47 u_2_2_3      *              0             0             1 
    48 u_1_2_4      *              1             0             1 
    49 u_2_2_4      *              0             0             1 
    50 u_1_2_5      *              0             0             1 
    51 u_2_2_5      *              0             0             1 
    52 u_1_2_6      *              0             0             1 
    53 u_2_2_6      *              1             0             1 
    54 u_1_3_1      *              1             0             1 
    55 u_2_3_1      *              1             0             1 
    56 u_1_3_2      *              0             0             1 
    57 u_2_3_2      *              1             0             1 
    58 u_1_3_5      *              0             0             1 
    59 u_2_3_5      *              1             0             1 
    60 u_1_3_6      *              0             0             1 
    61 u_2_3_6      *              1             0             1 
    62 u_1_4_1      *              1             0             1 
    63 u_2_4_1      *              1             0             1 
    64 u_1_4_2      *              0             0             1 
    65 u_2_4_2      *              1             0             1 
    66 u_1_4_5      *              0             0             1 
    67 u_2_4_5      *              1             0             1 
    68 u_1_4_6      *              0             0             1 
    69 u_2_4_6      *              1             0             1 
    70 u_1_5_1      *              1             0             1 
    71 u_2_5_1      *              0             0             1 
    72 u_1_5_2      *              1             0             1 
    73 u_2_5_2      *              1             0             1 
    74 u_1_5_3      *              1             0             1 
    75 u_2_5_3      *              0             0             1 
    76 u_1_5_4      *              1             0             1 
    77 u_2_5_4      *              0             0             1 
    78 u_1_6_2      *              1             0             1 
    79 u_2_6_2      *              0             0             1 
    80 u_1_6_3      *              1             0             1 
    81 u_2_6_3      *              0             0             1 
    82 u_1_6_4      *              1             0             1 
    83 u_2_6_4      *              0             0             1 
    84 u_1_6_7      *              1             0             1 
    85 u_2_6_7      *              0             0             1 
    86 u_1_7_1      *              1             0             1 
    87 u_2_7_1      *              1             0             1 
    88 u_1_7_6      *              0             0             1 
    89 u_2_7_6      *              1             0             1 

Integer feasibility conditions:

KKT.PE: max.abs.err = 0.00e+00 on row 0
        max.rel.err = 0.00e+00 on row 0
        High quality

KKT.PB: max.abs.err = 2.27e-13 on row 30
        max.rel.err = 3.21e-15 on row 193
        High quality

End of output
